Minimize
OBJROW: V0 + V1 + V2 + V3 + V4 + V5 + V6 + V7 + V8 + V9

Subject To
R1:  V0 + V1 <= 1
R2:  V0 + V2 <= 1
R3:  V0 + V3 <= 1
R4:  V0 + V1 <= 1
R5:  V1 + V2 <= 1
R6:  V1 + V4 <= 1
R7:  V1 + V5 <= 1
R8:  V1 + V9 <= 1
R9:  V2 + V3 <= 1
R10: V2 + V4 <= 1
R11: V3 + V4 <= 1
R12: V4 + V8 <= 1
R13: V5 + V6 <= 1
R14: V5 + V8 <= 1
R15: V5 + V9 <= 1
R16: V6 + V7 <= 1
R17: V7 + V8 <= 1

Bounds
 0 <= V0 <= 1
 0 <= V1 <= 1
 0 <= V2 <= 1
 0 <= V3 <= 1
 0 <= V4 <= 1
 0 <= V5 <= 1
 0 <= V6 <= 1
 0 <= V7 <= 1
 0 <= V8 <= 1
 0 <= V9 <= 1
 
Integers
V0 V1 V2 V3 V4 V5 V6 V7 V8 V9 

End
